letting initialStacks = [3, 13, 35, 41, 9, 1, 34, 49, 47, 24, 25, 26, 40, 17, 33, 36, 46, 15, 19, 12, 11, 51, 48, 22, 4, 32, 6, 16, 14, 18, 2, 20, 29, 8, 42, 45, 30, 38, 44, 50, 10, 39, 7, 28, 37, 21, 31, 27, 5, 23, 43]
